p edge 51 596
e 3 1
e 3 2
e 4 1
e 6 1
e 6 2
e 6 4
e 7 2
e 7 3
e 7 6
e 8 3
e 8 6
e 8 7
e 9 2
e 9 3
e 9 5
e 9 6
e 9 7
e 9 8
e 10 1
e 10 7
e 10 8
e 10 9
e 11 3
e 11 4
e 11 6
e 11 7
e 11 8
e 12 2
e 12 6
e 12 8
e 12 11
e 13 1
e 13 3
e 13 5
e 13 7
e 13 9
e 13 11
e 14 4
e 14 6
e 14 8
e 14 10
e 14 12
e 14 13
e 15 3
e 15 4
e 15 10
e 16 4
e 16 7
e 16 8
e 16 12
e 16 13
e 17 2
e 17 7
e 17 9
e 17 10
e 17 13
e 17 14
e 17 16
e 18 2
e 18 3
e 18 5
e 18 7
e 18 10
e 18 12
e 19 2
e 19 4
e 19 5
e 19 7
e 19 8
e 19 9
e 19 16
e 19 18
e 20 2
e 20 3
e 20 4
e 20 7
e 20 10
e 20 11
e 20 15
e 20 16
e 20 17
e 20 18
e 21 2
e 21 3
e 21 4
e 21 5
e 21 10
e 21 13
e 21 14
e 21 15
e 21 16
e 21 18
e 22 2
e 22 3
e 22 6
e 22 9
e 22 10
e 22 11
e 22 15
e 22 17
e 22 19
e 22 21
e 23 1
e 23 2
e 23 3
e 23 4
e 23 9
e 23 10
e 23 11
e 23 17
e 23 21
e 24 1
e 24 2
e 24 3
e 24 5
e 24 8
e 24 9
e 24 11
e 24 12
e 24 16
e 24 18
e 24 20
e 25 3
e 25 4
e 25 5
e 25 6
e 25 8
e 25 13
e 25 14
e 25 16
e 25 19
e 25 21
e 25 22
e 25 23
e 26 1
e 26 3
e 26 5
e 26 6
e 26 7
e 26 11
e 26 12
e 26 17
e 26 19
e 26 20
e 26 21
e 26 22
e 26 23
e 27 1
e 27 2
e 27 3
e 27 10
e 27 12
e 27 14
e 27 16
e 27 18
e 27 20
e 27 21
e 27 25
e 27 26
e 28 3
e 28 5
e 28 7
e 28 8
e 28 9
e 28 10
e 28 14
e 28 16
e 28 20
e 28 22
e 28 23
e 28 24
e 28 26
e 28 27
e 29 4
e 29 5
e 29 10
e 29 11
e 29 14
e 29 18
e 29 22
e 29 23
e 29 25
e 29 27
e 29 28
e 30 1
e 30 2
e 30 3
e 30 5
e 30 7
e 30 12
e 30 14
e 30 16
e 30 17
e 30 19
e 30 20
e 30 21
e 30 22
e 30 23
e 30 25
e 30 27
e 30 28
e 31 1
e 31 2
e 31 4
e 31 5
e 31 6
e 31 7
e 31 9
e 31 10
e 31 13
e 31 14
e 31 15
e 31 16
e 31 17
e 31 18
e 31 19
e 31 21
e 31 22
e 31 24
e 31 26
e 31 29
e 32 1
e 32 6
e 32 7
e 32 9
e 32 14
e 32 17
e 32 18
e 32 20
e 32 25
e 32 28
e 33 1
e 33 2
e 33 3
e 33 4
e 33 6
e 33 8
e 33 9
e 33 11
e 33 12
e 33 13
e 33 16
e 33 17
e 33 20
e 33 23
e 33 27
e 33 28
e 33 30
e 33 31
e 33 32
e 34 5
e 34 8
e 34 9
e 34 12
e 34 13
e 34 16
e 34 17
e 34 18
e 34 21
e 34 23
e 34 25
e 34 28
e 34 33
e 35 1
e 35 3
e 35 4
e 35 5
e 35 7
e 35 10
e 35 21
e 35 22
e 35 23
e 35 25
e 35 28
e 35 30
e 35 34
e 36 1
e 36 2
e 36 3
e 36 5
e 36 7
e 36 8
e 36 11
e 36 12
e 36 16
e 36 21
e 36 22
e 36 23
e 36 27
e 36 29
e 36 30
e 36 31
e 36 32
e 36 33
e 36 35
e 37 1
e 37 3
e 37 5
e 37 6
e 37 7
e 37 8
e 37 11
e 37 12
e 37 13
e 37 14
e 37 16
e 37 18
e 37 20
e 37 27
e 37 30
e 37 31
e 37 32
e 37 36
e 38 3
e 38 6
e 38 7
e 38 9
e 38 11
e 38 12
e 38 13
e 38 14
e 38 15
e 38 16
e 38 17
e 38 18
e 38 19
e 38 20
e 38 23
e 38 24
e 38 25
e 38 28
e 38 30
e 38 31
e 38 32
e 38 33
e 38 37
e 39 4
e 39 7
e 39 8
e 39 11
e 39 12
e 39 13
e 39 14
e 39 15
e 39 20
e 39 21
e 39 23
e 39 25
e 39 34
e 39 36
e 40 2
e 40 4
e 40 5
e 40 6
e 40 7
e 40 9
e 40 11
e 40 13
e 40 14
e 40 15
e 40 17
e 40 18
e 40 22
e 40 24
e 40 27
e 40 30
e 40 36
e 40 37
e 40 38
e 41 1
e 41 2
e 41 3
e 41 4
e 41 8
e 41 9
e 41 11
e 41 13
e 41 16
e 41 25
e 41 28
e 41 29
e 41 31
e 41 35
e 41 38
e 42 1
e 42 4
e 42 5
e 42 6
e 42 7
e 42 12
e 42 14
e 42 15
e 42 16
e 42 21
e 42 22
e 42 24
e 42 25
e 42 26
e 42 28
e 42 29
e 42 30
e 42 36
e 42 37
e 42 39
e 42 40
e 43 1
e 43 2
e 43 4
e 43 5
e 43 6
e 43 9
e 43 10
e 43 13
e 43 17
e 43 19
e 43 21
e 43 22
e 43 25
e 43 27
e 43 28
e 43 32
e 43 37
e 43 38
e 43 41
e 44 1
e 44 2
e 44 5
e 44 6
e 44 10
e 44 11
e 44 13
e 44 15
e 44 16
e 44 19
e 44 20
e 44 21
e 44 27
e 44 35
e 44 39
e 44 42
e 44 43
e 45 1
e 45 3
e 45 4
e 45 5
e 45 6
e 45 7
e 45 8
e 45 10
e 45 11
e 45 13
e 45 14
e 45 16
e 45 18
e 45 19
e 45 23
e 45 25
e 45 30
e 45 31
e 45 32
e 45 34
e 45 35
e 45 36
e 45 38
e 45 43
e 46 1
e 46 2
e 46 4
e 46 6
e 46 8
e 46 9
e 46 11
e 46 12
e 46 16
e 46 17
e 46 18
e 46 20
e 46 21
e 46 22
e 46 26
e 46 27
e 46 29
e 46 31
e 46 32
e 46 33
e 46 35
e 46 39
e 46 40
e 46 43
e 46 44
e 46 45
e 47 1
e 47 2
e 47 5
e 47 6
e 47 12
e 47 13
e 47 14
e 47 17
e 47 19
e 47 20
e 47 29
e 47 30
e 47 32
e 47 34
e 47 36
e 47 42
e 48 1
e 48 3
e 48 10
e 48 11
e 48 12
e 48 15
e 48 18
e 48 25
e 48 26
e 48 27
e 48 28
e 48 30
e 48 31
e 48 33
e 48 37
e 48 38
e 48 40
e 48 41
e 48 42
e 48 43
e 48 44
e 48 46
e 48 47
e 49 1
e 49 3
e 49 4
e 49 5
e 49 10
e 49 11
e 49 12
e 49 17
e 49 18
e 49 19
e 49 21
e 49 22
e 49 23
e 49 26
e 49 27
e 49 29
e 49 30
e 49 33
e 49 37
e 49 38
e 49 39
e 49 40
e 49 43
e 49 44
e 49 45
e 50 1
e 50 3
e 50 4
e 50 6
e 50 13
e 50 14
e 50 16
e 50 18
e 50 20
e 50 21
e 50 25
e 50 27
e 50 29
e 50 34
e 50 35
e 50 38
e 50 39
e 50 43
e 50 45
e 50 46
e 50 47
e 50 49
e 51 4
e 51 6
e 51 8
e 51 11
e 51 12
e 51 18
e 51 20
e 51 25
e 51 30
e 51 31
e 51 32
e 51 36
e 51 40
e 51 42
e 51 43
e 51 45
e 51 46
e 51 47
e 51 50
